10 5 1.15
5 1 2 23 1 3 45 1 1 82 1 5 84 2 4 38 3 38 
5 1 3 21 1 2 29 1 1 18 1 5 41 1 4 50 
5 1 3 38 1 4 54 2 5 16 1 16 1 1 52 1 2 52 
5 1 5 37 2 1 54 4 54 1 3 74 1 2 62 1 4 57 
5 1 5 57 2 1 81 3 81 1 2 61 1 4 68 1 3 30 
5 1 5 81 1 1 79 2 2 89 5 89 1 3 89 1 4 11 
5 2 4 33 2 33 1 3 20 1 1 91 1 5 20 1 2 66 
5 1 5 24 1 2 84 1 1 32 1 3 55 1 4 8 
5 1 5 56 2 1 7 3 7 1 4 54 1 3 64 2 2 39 5 39 
5 1 5 40 1 2 83 1 1 19 2 3 8 4 8 1 4 7 
3 23 23 128 33 189 264 53 348 407 
3 65 30 151 16 248 295 25 421 484 
2 73 42 210 34 343 413 
2 11 43 145 74 222 342 
3 67 34 137 26 196 317 80 367 488 
